-1 0 1
0 47 0
47 45 0
0 17 0
17 21 0
21 23 0
23 3 0
45 42 0
42 26 0
26 46 0
46 39 0
39 19 0
19 44 0
44 16 0
16 33 0
33 34 0
33 40 0
16 43 0
43 15 1
15 2 0
2 22 0
15 35 1
35 32 0
32 24 0
35 36 0
24 38 0
38 9 1
9 13 0
22 8 0
22 29 1
29 27 0
27 5 1
5 1 1
1 7 0
7 49 0
7 48 0
26 6 0
6 37 0
40 30 0
27 20 0
20 25 0
3 12 0
12 18 0
18 11 0
11 10 0
25 31 0
20 4 0
30 41 1
41 28 0
30 14 0
